objective value:                               241956
t_y..01101                                          1 	(obj:600)
t_y..02101                                          1 	(obj:800)
t_y..04101                                          1 	(obj:200)
t_y..06101                                          1 	(obj:1000)
t_y..07101                                          1 	(obj:800)
t_y..08101                                          1 	(obj:400)
t_y..09101                                          1 	(obj:200)
t_y..11101                                          1 	(obj:200)
t_y..02102                                          1 	(obj:800)
t_y..03102                                          1 	(obj:600)
t_y..04102                                          1 	(obj:200)
t_y..05102                                          1 	(obj:1000)
t_y..07102                                          1 	(obj:800)
t_y..10102                                          1 	(obj:1000)
t_y..12102                                          1 	(obj:400)
t_y..01103                                          1 	(obj:600)
t_y..05103                                          1 	(obj:1000)
t_y..06103                                          1 	(obj:1000)
t_y..08103                                          1 	(obj:400)
t_y..10103                                          1 	(obj:1000)
t_y..11103                                          1 	(obj:200)
t_y..01104                                          1 	(obj:600)
t_y..04104                                          1 	(obj:200)
t_y..05104                                          1 	(obj:1000)
t_y..07104                                          1 	(obj:800)
t_y..09104                                          1 	(obj:200)
t_y..02105                                          1 	(obj:800)
t_y..03105                                          1 	(obj:600)
t_y..04105                                          1 	(obj:200)
t_y..06105                                          1 	(obj:1000)
t_y..09105                                          1 	(obj:200)
t_y..12105                                          1 	(obj:400)
t_y..01106                                          1 	(obj:600)
t_y..02106                                          1 	(obj:800)
t_y..04106                                          1 	(obj:200)
t_y..06106                                          1 	(obj:1000)
t_y..09106                                          1 	(obj:200)
t_y..01107                                          1 	(obj:600)
t_y..04107                                          1 	(obj:200)
t_y..08107                                          1 	(obj:400)
t_y..10107                                          1 	(obj:1000)
t_y..12107                                          1 	(obj:400)
t_y..04108                                          1 	(obj:200)
t_y..05108                                          1 	(obj:1000)
t_y..06108                                          1 	(obj:1000)
t_y..11108                                          1 	(obj:200)
t_y..12108                                          1 	(obj:400)
t_y..04109                                          1 	(obj:200)
t_y..07109                                          1 	(obj:800)
t_y..08109                                          1 	(obj:400)
t_y..01110                                          1 	(obj:600)
t_y..03110                                          1 	(obj:600)
t_y..11110                                          1 	(obj:200)
t_y..01111                                          1 	(obj:600)
t_y..02111                                          1 	(obj:800)
t_y..05111                                          1 	(obj:1000)
t_y..06112                                          1 	(obj:1000)
t_y..12112                                          1 	(obj:400)
t_y..01113                                          1 	(obj:600)
t_y..05113                                          1 	(obj:1000)
t_y..08113                                          1 	(obj:400)
t_y..04114                                          1 	(obj:200)
t_y..09114                                          1 	(obj:200)
t_y..10114                                          1 	(obj:1000)
t_y..12114                                          1 	(obj:400)
t_y..03115                                          1 	(obj:600)
t_y..11115                                          1 	(obj:200)
t_y..07116                                          1 	(obj:800)
t_y..05117                                          1 	(obj:1000)
t_y..07117                                          1 	(obj:800)
t_y..09117                                          1 	(obj:200)
t_y..10117                                          1 	(obj:1000)
t_y..04118                                          1 	(obj:200)
t_y..08118                                          1 	(obj:400)
t_y..02119                                          1 	(obj:800)
t_y..04119                                          1 	(obj:200)
t_y..05119                                          1 	(obj:1000)
t_y..12119                                          1 	(obj:400)
t_y..01120                                          1 	(obj:600)
t_y..11120                                          1 	(obj:200)
t_y..04121                                          1 	(obj:200)
t_y..05121                                          1 	(obj:1000)
t_y..09121                                          1 	(obj:200)
t_y..02122                                          1 	(obj:800)
t_y..04122                                          1 	(obj:200)
t_y..05122                                          1 	(obj:1000)
t_y..06122                                          1 	(obj:1000)
t_y..04123                                          1 	(obj:200)
t_y..10123                                          1 	(obj:1000)
t_y..06124                                          1 	(obj:1000)
t_y..03125                                          1 	(obj:600)
t_y..04125                                          1 	(obj:200)
t_y..05125                                          1 	(obj:1000)
t_y..06125                                          1 	(obj:1000)
t_y..04126                                          1 	(obj:200)
t_y..05126                                          1 	(obj:1000)
t_y..01127                                          1 	(obj:600)
t_y..04127                                          1 	(obj:200)
t_y..06127                                          1 	(obj:1000)
t_y..10128                                          1 	(obj:1000)
t_y..01129                                          1 	(obj:600)
t_y..02129                                          1 	(obj:800)
t_y..06129                                          1 	(obj:1000)
t_y..12129                                          1 	(obj:400)
t_y..01130                                          1 	(obj:600)
t_y..04130                                          1 	(obj:200)
t_y..05130                                          1 	(obj:1000)
t_y..12130                                          1 	(obj:400)
t_s...0601                                        114 	(obj:3)
t_s...0801                                         96 	(obj:4)
t_s...0901                                        114 	(obj:2)
t_s...1101                                        100 	(obj:1)
t_s...0202                                        205 	(obj:2)
t_s...0302                                        214 	(obj:1)
t_s...0702                                        121 	(obj:1)
t_s...0902                                        114 	(obj:2)
t_s...1202                                         78 	(obj:3)
t_s...0103                                         30 	(obj:2)
t_s...0203                                         89 	(obj:2)
t_s...0303                                         95 	(obj:1)
t_s...0803                                        151 	(obj:4)
t_s...1003                                        289 	(obj:2)
t_s...1103                                        353 	(obj:1)
t_s...0104                                        143 	(obj:2)
t_s...0304                                         16 	(obj:1)
t_s...0504                                        335 	(obj:2)
t_s...0704                                        527 	(obj:1)
t_s...0804                                        151 	(obj:4)
t_s...1004                                        170 	(obj:2)
t_s...1104                                        267 	(obj:1)
t_s...0105                                         44 	(obj:2)
t_s...0305                                        344 	(obj:1)
t_s...0505                                        227 	(obj:2)
t_s...0705                                        419 	(obj:1)
t_s...0805                                         75 	(obj:4)
t_s...0905                                        331 	(obj:2)
t_s...1005                                         79 	(obj:2)
t_s...1105                                        180 	(obj:1)
t_s...1205                                         78 	(obj:3)
t_s...0206                                        399 	(obj:2)
t_s...0306                                        264 	(obj:1)
t_s...0506                                        116 	(obj:2)
t_s...0606                                        116 	(obj:3)
t_s...0706                                        312 	(obj:1)
t_s...0906                                        706 	(obj:2)
t_s...1106                                         90 	(obj:1)
t_s...0107                                        196 	(obj:2)
t_s...0207                                        293 	(obj:2)
t_s...0307                                        163 	(obj:1)
t_s...0707                                        211 	(obj:1)
t_s...0807                                         82 	(obj:4)
t_s...0907                                        626 	(obj:2)
t_s...1007                                        554 	(obj:2)
t_s...1207                                         14 	(obj:3)
t_s...0108                                         80 	(obj:2)
t_s...0208                                        188 	(obj:2)
t_s...0308                                         77 	(obj:1)
t_s...0508                                        195 	(obj:2)
t_s...0608                                        277 	(obj:3)
t_s...0708                                        118 	(obj:1)
t_s...0908                                        523 	(obj:2)
t_s...1008                                        475 	(obj:2)
t_s...1108                                         87 	(obj:1)
t_s...1208                                        314 	(obj:3)
t_s...0209                                         96 	(obj:2)
t_s...0409                                        364 	(obj:4)
t_s...0509                                        111 	(obj:2)
t_s...0609                                        167 	(obj:3)
t_s...0709                                        592 	(obj:1)
t_s...0809                                        296 	(obj:4)
t_s...0909                                        411 	(obj:2)
t_s...1009                                        384 	(obj:2)
t_s...1209                                        207 	(obj:3)
t_s...0310                                        658 	(obj:1)
t_s...0410                                        256 	(obj:4)
t_s...0610                                         76 	(obj:3)
t_s...0710                                        496 	(obj:1)
t_s...0810                                        187 	(obj:4)
t_s...0910                                        318 	(obj:2)
t_s...1010                                        305 	(obj:2)
t_s...1110                                        408 	(obj:1)
t_s...1210                                        103 	(obj:3)
t_s...0111                                        104 	(obj:2)
t_s...0211                                        666 	(obj:2)
t_s...0311                                        574 	(obj:1)
t_s...0411                                        171 	(obj:4)
t_s...0511                                        275 	(obj:2)
t_s...0711                                        399 	(obj:1)
t_s...0811                                         89 	(obj:4)
t_s...0911                                        203 	(obj:2)
t_s...1011                                        201 	(obj:2)
t_s...1111                                        318 	(obj:1)
t_s...0212                                        569 	(obj:2)
t_s...0312                                        472 	(obj:1)
t_s...0412                                         87 	(obj:4)
t_s...0512                                        186 	(obj:2)
t_s...0612                                        948 	(obj:3)
t_s...0712                                        308 	(obj:1)
t_s...0912                                         89 	(obj:2)
t_s...1012                                        117 	(obj:2)
t_s...1112                                        197 	(obj:1)
t_s...1212                                        242 	(obj:3)
t_s...0113                                        536 	(obj:2)
t_s...0213                                        489 	(obj:2)
t_s...0313                                        371 	(obj:1)
t_s...0513                                        347 	(obj:2)
t_s...0613                                        830 	(obj:3)
t_s...0713                                        202 	(obj:1)
t_s...0813                                        401 	(obj:4)
t_s...1113                                         98 	(obj:1)
t_s...1213                                        155 	(obj:3)
t_s...0114                                        453 	(obj:2)
t_s...0214                                        372 	(obj:2)
t_s...0314                                        266 	(obj:1)
t_s...0414                                        297 	(obj:4)
t_s...0514                                        244 	(obj:2)
t_s...0614                                        728 	(obj:3)
t_s...0714                                        118 	(obj:1)
t_s...0814                                        317 	(obj:4)
t_s...0914                                        172 	(obj:2)
t_s...1014                                        264 	(obj:2)
t_s...1214                                        395 	(obj:3)
t_s...0115                                        365 	(obj:2)
t_s...0215                                        273 	(obj:2)
t_s...0315                                        834 	(obj:1)
t_s...0415                                        185 	(obj:4)
t_s...0515                                        129 	(obj:2)
t_s...0615                                        644 	(obj:3)
t_s...0815                                        209 	(obj:4)
t_s...0915                                         90 	(obj:2)
t_s...1015                                        142 	(obj:2)
t_s...1115                                        688 	(obj:1)
t_s...1215                                        299 	(obj:3)
t_s...0116                                        256 	(obj:2)
t_s...0216                                        187 	(obj:2)
t_s...0316                                        746 	(obj:1)
t_s...0416                                         81 	(obj:4)
t_s...0516                                         47 	(obj:2)
t_s...0616                                        533 	(obj:3)
t_s...0716                                       1345 	(obj:1)
t_s...0816                                        119 	(obj:4)
t_s...1016                                         19 	(obj:2)
t_s...1116                                        606 	(obj:1)
t_s...1216                                        213 	(obj:3)
t_s...0117                                        180 	(obj:2)
t_s...0217                                        108 	(obj:2)
t_s...0317                                        655 	(obj:1)
t_s...0517                                        282 	(obj:2)
t_s...0617                                        414 	(obj:3)
t_s...0717                                       1295 	(obj:1)
t_s...0917                                        305 	(obj:2)
t_s...1017                                        479 	(obj:2)
t_s...1117                                        510 	(obj:1)
t_s...1217                                         96 	(obj:3)
t_s...0118                                         90 	(obj:2)
t_s...0218                                         24 	(obj:2)
t_s...0318                                        564 	(obj:1)
t_s...0418                                         62 	(obj:4)
t_s...0518                                        196 	(obj:2)
t_s...0618                                        336 	(obj:3)
t_s...0718                                       1199 	(obj:1)
t_s...0818                                       1178 	(obj:4)
t_s...0918                                        222 	(obj:2)
t_s...1018                                        402 	(obj:2)
t_s...1118                                        395 	(obj:1)
t_s...0219                                        181 	(obj:2)
t_s...0319                                        481 	(obj:1)
t_s...0419                                         77 	(obj:4)
t_s...0519                                        119 	(obj:2)
t_s...0619                                        239 	(obj:3)
t_s...0719                                       1110 	(obj:1)
t_s...0819                                       1068 	(obj:4)
t_s...0919                                        113 	(obj:2)
t_s...1019                                        290 	(obj:2)
t_s...1119                                        308 	(obj:1)
t_s...1219                                        931 	(obj:3)
t_s...0120                                        669 	(obj:2)
t_s...0220                                         88 	(obj:2)
t_s...0320                                        371 	(obj:1)
t_s...0620                                        119 	(obj:3)
t_s...0720                                       1008 	(obj:1)
t_s...0820                                        987 	(obj:4)
t_s...1020                                        187 	(obj:2)
t_s...1120                                        914 	(obj:1)
t_s...1220                                        836 	(obj:3)
t_s...0121                                        554 	(obj:2)
t_s...0321                                        282 	(obj:1)
t_s...0721                                        890 	(obj:1)
t_s...0821                                        898 	(obj:4)
t_s...0921                                        942 	(obj:2)
t_s...1021                                        104 	(obj:2)
t_s...1121                                        812 	(obj:1)
t_s...1221                                        717 	(obj:3)
t_s...0122                                        464 	(obj:2)
t_s...0222                                        601 	(obj:2)
t_s...0322                                        205 	(obj:1)
t_s...0522                                        179 	(obj:2)
t_s...0622                                         90 	(obj:3)
t_s...0722                                        796 	(obj:1)
t_s...0822                                        783 	(obj:4)
t_s...0922                                        843 	(obj:2)
t_s...1122                                        728 	(obj:1)
t_s...1222                                        597 	(obj:3)
t_s...0123                                        348 	(obj:2)
t_s...0223                                        487 	(obj:2)
t_s...0323                                        117 	(obj:1)
t_s...0423                                         97 	(obj:4)
t_s...0523                                         78 	(obj:2)
t_s...0723                                        718 	(obj:1)
t_s...0823                                        672 	(obj:4)
t_s...0923                                        731 	(obj:2)
t_s...1023                                        434 	(obj:2)
t_s...1123                                        641 	(obj:1)
t_s...1223                                        498 	(obj:3)
t_s...0124                                        238 	(obj:2)
t_s...0224                                        370 	(obj:2)
t_s...0724                                        623 	(obj:1)
t_s...0824                                        568 	(obj:4)
t_s...0924                                        613 	(obj:2)
t_s...1024                                        317 	(obj:2)
t_s...1124                                        550 	(obj:1)
t_s...1224                                        398 	(obj:3)
t_s...0125                                        114 	(obj:2)
t_s...0225                                        272 	(obj:2)
t_s...0325                                        504 	(obj:1)
t_s...0625                                         92 	(obj:3)
t_s...0725                                        509 	(obj:1)
t_s...0825                                        461 	(obj:4)
t_s...0925                                        496 	(obj:2)
t_s...1025                                        222 	(obj:2)
t_s...1125                                        434 	(obj:1)
t_s...1225                                        314 	(obj:3)
t_s...0226                                        196 	(obj:2)
t_s...0326                                        420 	(obj:1)
t_s...0526                                        273 	(obj:2)
t_s...0726                                        408 	(obj:1)
t_s...0826                                        383 	(obj:4)
t_s...0926                                        386 	(obj:2)
t_s...1026                                        110 	(obj:2)
t_s...1126                                        354 	(obj:1)
t_s...1226                                        193 	(obj:3)
t_s...0127                                        123 	(obj:2)
t_s...0227                                        111 	(obj:2)
t_s...0327                                        299 	(obj:1)
t_s...0427                                        167 	(obj:4)
t_s...0527                                        182 	(obj:2)
t_s...0627                                        118 	(obj:3)
t_s...0727                                        286 	(obj:1)
t_s...0827                                        262 	(obj:4)
t_s...0927                                        311 	(obj:2)
t_s...1127                                        269 	(obj:1)
t_s...1227                                         79 	(obj:3)
t_s...0328                                        187 	(obj:1)
t_s...0428                                         92 	(obj:4)
t_s...0528                                         91 	(obj:2)
t_s...0728                                        195 	(obj:1)
t_s...0828                                        184 	(obj:4)
t_s...0928                                        206 	(obj:2)
t_s...1028                                        179 	(obj:2)
t_s...1128                                        170 	(obj:1)
t_s...0229                                        122 	(obj:2)
t_s...0329                                        103 	(obj:1)
t_s...0629                                         91 	(obj:3)
t_s...0729                                         78 	(obj:1)
t_s...0829                                         94 	(obj:4)
t_s...0929                                        116 	(obj:2)
t_s...1029                                         97 	(obj:2)
t_s...1129                                         87 	(obj:1)
t_x..01101                                         89 	(obj:0)
t_x..01103                                        122 	(obj:0)
t_x..01104                                        236 	(obj:0)
t_x..01106                                         65 	(obj:0)
t_x..01107                                        305 	(obj:0)
t_x..01110                                        110 	(obj:0)
t_x..01111                                        202 	(obj:0)
t_x..01113                                        645 	(obj:0)
t_x..01120                                        757 	(obj:0)
t_x..01127                                        227 	(obj:0)
t_x..01129                                         90 	(obj:0)
t_x..01130                                         87 	(obj:0)
t_x..02101                                         92 	(obj:0)
t_x..02102                                        315 	(obj:0)
t_x..02105                                         90 	(obj:0)
t_x..02106                                        484 	(obj:0)
t_x..02111                                        768 	(obj:0)
t_x..02119                                        281 	(obj:0)
t_x..02122                                        724 	(obj:0)
t_x..02129                                        246 	(obj:0)
t_x..03102                                        327 	(obj:0)
t_x..03105                                        420 	(obj:0)
t_x..03110                                        746 	(obj:0)
t_x..03115                                        669 	(obj:0)
t_x..03125                                        628 	(obj:0)
t_x..04101                                         91 	(obj:0)
t_x..04102                                         86 	(obj:0)
t_x..04104                                        122 	(obj:0)
t_x..04105                                         98 	(obj:0)
t_x..04106                                        113 	(obj:0)
t_x..04107                                        104 	(obj:0)
t_x..04108                                        118 	(obj:0)
t_x..04109                                        453 	(obj:0)
t_x..04114                                        421 	(obj:0)
t_x..04118                                        155 	(obj:0)
t_x..04119                                         95 	(obj:0)
t_x..04121                                         92 	(obj:0)
t_x..04122                                        102 	(obj:0)
t_x..04123                                        204 	(obj:0)
t_x..04125                                        105 	(obj:0)
t_x..04126                                        119 	(obj:0)
t_x..04127                                        281 	(obj:0)
t_x..04130                                        117 	(obj:0)
t_x..05102                                         98 	(obj:0)
t_x..05103                                        105 	(obj:0)
t_x..05104                                        411 	(obj:0)
t_x..05108                                        281 	(obj:0)
t_x..05111                                        382 	(obj:0)
t_x..05113                                        278 	(obj:0)
t_x..05117                                        351 	(obj:0)
t_x..05121                                         99 	(obj:0)
t_x..05122                                        300 	(obj:0)
t_x..05125                                        121 	(obj:0)
t_x..05126                                        384 	(obj:0)
t_x..05130                                        125 	(obj:0)
t_x..06101                                        218 	(obj:0)
t_x..06103                                         85 	(obj:0)
t_x..06105                                        114 	(obj:0)
t_x..06106                                        218 	(obj:0)
t_x..06108                                        380 	(obj:0)
t_x..06112                                       1071 	(obj:0)
t_x..06122                                        195 	(obj:0)
t_x..06124                                         91 	(obj:0)
t_x..06125                                        217 	(obj:0)
t_x..06127                                        242 	(obj:0)
t_x..06129                                        214 	(obj:0)
t_x..07101                                        108 	(obj:0)
t_x..07102                                        225 	(obj:0)
t_x..07104                                        527 	(obj:0)
t_x..07109                                        571 	(obj:0)
t_x..07116                                       1468 	(obj:0)
t_x..07117                                         74 	(obj:0)
t_x..08101                                        208 	(obj:0)
t_x..08103                                        260 	(obj:0)
t_x..08107                                        188 	(obj:0)
t_x..08109                                        394 	(obj:0)
t_x..08113                                        525 	(obj:0)
t_x..08118                                       1303 	(obj:0)
t_x..09101                                        215 	(obj:0)
t_x..09104                                         92 	(obj:0)
t_x..09105                                        410 	(obj:0)
t_x..09106                                        468 	(obj:0)
t_x..09114                                        272 	(obj:0)
t_x..09117                                        408 	(obj:0)
t_x..09121                                       1064 	(obj:0)
t_x..10102                                        104 	(obj:0)
t_x..10103                                        289 	(obj:0)
t_x..10107                                        630 	(obj:0)
t_x..10114                                        355 	(obj:0)
t_x..10117                                        555 	(obj:0)
t_x..10123                                        559 	(obj:0)
t_x..10128                                        303 	(obj:0)
t_x..11101                                        201 	(obj:0)
t_x..11103                                        435 	(obj:0)
t_x..11108                                        183 	(obj:0)
t_x..11110                                        494 	(obj:0)
t_x..11115                                        779 	(obj:0)
t_x..11120                                        701 	(obj:0)
t_x..12102                                        193 	(obj:0)
t_x..12105                                        186 	(obj:0)
t_x..12107                                        119 	(obj:0)
t_x..12108                                        416 	(obj:0)
t_x..12112                                        367 	(obj:0)
t_x..12114                                        360 	(obj:0)
t_x..12119                                       1052 	(obj:0)
t_x..12129                                        105 	(obj:0)
t_x..12130                                         97 	(obj:0)
